50

100 12 202
96 47 309
93 4 208
90 1 347
88 33 225
88 20 404
86 13 196
85 37 325
84 26 347
84 3 371
83 31 307
83 37 174
80 33 377
80 4 413
79 40 251
77 16 403
77 32 268
74 1 200
70 23 312
68 22 243
67 19 442
64 5 441
61 31 178
61 12 238
58 22 446
58 17 353
58 29 430
56 19 279
54 14 295
54 19 406
53 3 400
51 18 450
49 9 387
48 20 204
47 18 217
45 9 276
45 22 377
44 12 206
43 4 173
41 6 392
41 13 303
40 18 222
40 9 234
37 12 449
36 5 362
34 6 419
34 6 413
33 15 273
33 11 413
31 4 399
